100 100 100
50
98 89 88
84 78 64
59 78 73
10 93 69
33 81 67
86 81 74
97 75 62
43 9 4
30 100 100
21 20 48
22 93 82
53 83 71
76 79 3
58 90 84
88 69 56
79 46 97
55 67 63
100 62 62
85 95 97
68 37 87
73 90 98
80 18 98
80 87 3
64 52 94
25 4 46
81 52 64
9 20 13
38 80 90
60 54 100
99 61 84
8 17 22
50 55 64
90 100 56
63 80 74
68 32 91
88 73 71
95 45 68
85 69 60
61 88 99
91 92 46
80 83 91
54 80 73
89 38 81
52 96 97
54 52 51
58 70 95
40 76 78
100 84 87
79 53 100
99 94 69
